<?xml version = "1.0" standalone="yes"?>
<!-- This file has been generated by DOcplex version 2.23.222  -->
<CPLEXSolution version="1.0">
 <header
   problemName="CVRP"
   objectiveValue="10795.7"
  />
 <variables>
  <variable name="x_0_2" index="1" value="1.00000"/>
  <variable name="x_0_3" index="2" value="1.00000"/>
  <variable name="x_0_5" index="4" value="1.00000"/>
  <variable name="x_0_7" index="6" value="1.00000"/>
  <variable name="x_0_9" index="8" value="1.00000"/>
  <variable name="x_0_11" index="10" value="1.00000"/>
  <variable name="x_0_12" index="11" value="1.00000"/>
  <variable name="x_1_0" index="12" value="1.00000"/>
  <variable name="x_2_0" index="24" value="1.00000"/>
  <variable name="x_3_0" index="36" value="1.00000"/>
  <variable name="x_4_0" index="48" value="1.00000"/>
  <variable name="x_5_6" index="65" value="1.00000"/>
  <variable name="x_6_8" index="79" value="1.00000"/>
  <variable name="x_7_1" index="85" value="1.00000"/>
  <variable name="x_8_0" index="96" value="1.00000"/>
  <variable name="x_9_4" index="112" value="1.00000"/>
  <variable name="x_10_0" index="120" value="1.00000"/>
  <variable name="x_11_10" index="142" value="1.00000"/>
  <variable name="x_12_0" index="144" value="1.00000"/>
  <variable name="u_1" index="156" value="57.00000"/>
  <variable name="u_2" index="157" value="39.00000"/>
  <variable name="u_3" index="158" value="44.00000"/>
  <variable name="u_4" index="159" value="58.00000"/>
  <variable name="u_5" index="160" value="3.00000"/>
  <variable name="u_6" index="161" value="34.00000"/>
  <variable name="u_7" index="162" value="12.00000"/>
  <variable name="u_8" index="163" value="52.00000"/>
  <variable name="u_9" index="164" value="28.00000"/>
  <variable name="u_10" index="165" value="44.00000"/>
  <variable name="u_11" index="166" value="5.00000"/>
  <variable name="u_12" index="167" value="57.00000"/>
 </variables>
</CPLEXSolution>
